Test: fpga11_15_uns_rcr.cnf
Options: -no-inverting-opt -activity-nl-freq=1
WARNING: for repeatability, setting FPU to use double precision
============================[ Problem Statistics ]=============================
|                                                                             |
|  Number of symmetries:           49                                         |
|  Number of invertingSyms:         0                                         |
|  Number of variables:           330                                         |
|  Number of clauses:            2340                                         |
|  Parse time:                   0.00 s                                       |
|                                                                             |
============================[ Search Statistics ]==============================
| Conflicts |          ORIGINAL         |          LEARNT          | Progress |
|           |    Vars  Clauses Literals |    Limit  Clauses Lit/Cl |          |
===============================================================================
|       100 |     330     2340     4950 |      858      114     68 |  0.001 % |
|       250 |     330     2340     4950 |      943      380     56 |  0.001 % |
|       475 |     330     2340     4950 |     1038      842     51 |  0.001 % |
|       812 |     330     2340     4950 |     1141      559     44 |  0.001 % |
|      1318 |     330     2340     4950 |     1256     1111     42 |  0.001 % |
|      2077 |     330     2340     4950 |     1381     1243     44 |  0.001 % |
|      3216 |     330     2340     4950 |     1519     1351     45 |  0.001 % |
|      4924 |     330     2340     4950 |     1671      955     41 |  0.001 % |
|      7486 |     330     2340     4950 |     1839     1118     45 |  0.001 % |
===============================================================================
restarts              : 46
conflicts             : 10683          (31793 /sec)
symconflicts          : 2056           (6119 /sec)
decisions             : 19628          (0.00 % random) (58413 /sec)
propagations          : 247604         (736871 /sec)
sympropagations       : 11999          (35709 /sec)
conflict literals     : 534012         (5.68 % deleted)
literals     : 534012         (5.68 % deleted)

HEURISTIC USAGES
random                : 0           
activity w/ lookahead : 0           
activity no lookahead : 19628       
original sp           : 0           
sym count             : 0           

Memory used           : 6.00 MB
CPU time              : 0.336021 s

UNSATISFIABLE
